NAME ns1766074
ROWS
 N  OBJ
 E  R0      
 E  R1      
 E  R2      
 E  R3      
 E  R4      
 E  R5      
 E  R6      
 E  R7      
 E  R8      
 E  R9      
 E  R10     
 E  R11     
 E  R12     
 E  R13     
 E  R14     
 E  R15     
 E  R16     
 E  R17     
 E  R18     
 E  R19     
 L  R20     
 L  R21     
 L  R22     
 L  R23     
 L  R24     
 L  R25     
 L  R26     
 L  R27     
 L  R28     
 L  R29     
 L  R30     
 L  R31     
 L  R32     
 L  R33     
 L  R34     
 L  R35     
 L  R36     
 L  R37     
 L  R38     
 L  R39     
 L  R40     
 L  R41     
 L  R42     
 L  R43     
 L  R44     
 L  R45     
 L  R46     
 L  R47     
 L  R48     
 L  R49     
 L  R50     
 L  R51     
 L  R52     
 L  R53     
 L  R54     
 L  R55     
 L  R56     
 L  R57     
 L  R58     
 L  R59     
 L  R60     
 L  R61     
 L  R62     
 L  R63     
 L  R64     
 L  R65     
 L  R66     
 L  R67     
 L  R68     
 L  R69     
 L  R70     
 L  R71     
 L  R72     
 L  R73     
 L  R74     
 L  R75     
 L  R76     
 L  R77     
 L  R78     
 L  R79     
 L  R80     
 L  R81     
 L  R82     
 L  R83     
 L  R84     
 L  R85     
 L  R86     
 L  R87     
 L  R88     
 L  R89     
 L  R90     
 L  R91     
 L  R92     
 L  R93     
 L  R94     
 L  R95     
 L  R96     
 L  R97     
 L  R98     
 L  R99     
 L  R100    
 L  R101    
 L  R102    
 L  R103    
 L  R104    
 L  R105    
 L  R106    
 L  R107    
 L  R108    
 L  R109    
 L  R110    
 L  R111    
 L  R112    
 L  R113    
 L  R114    
 L  R115    
 L  R116    
 L  R117    
 L  R118    
 L  R119    
 L  R120    
 L  R121    
 L  R122    
 L  R123    
 L  R124    
 L  R125    
 L  R126    
 L  R127    
 L  R128    
 L  R129    
 L  R130    
 L  R131    
 L  R132    
 L  R133    
 L  R134    
 L  R135    
 L  R136    
 L  R137    
 L  R138    
 L  R139    
 L  R140    
 L  R141    
 L  R142    
 L  R143    
 L  R144    
 L  R145    
 L  R146    
 L  R147    
 L  R148    
 L  R149    
 L  R150    
 L  R151    
 L  R152    
 L  R153    
 L  R154    
 L  R155    
 L  R156    
 L  R157    
 L  R158    
 L  R159    
 L  R160    
 L  R161    
 L  R162    
 L  R163    
 L  R164    
 L  R165    
 L  R166    
 L  R167    
 L  R168    
 L  R169    
 L  R170    
 L  R171    
 L  R172    
 L  R173    
 L  R174    
 L  R175    
 L  R176    
 L  R177    
 L  R178    
 L  R179    
 L  R180    
 L  R181    
COLUMNS
    C0        OBJ       502
    C0        R0        1
    C0        R11       1
    C0        R20       10
    C1        OBJ       2033
    C1        R0        1
    C1        R12       1
    C1        R21       10
    C2        OBJ       1234
    C2        R0        1
    C2        R13       1
    C2        R22       10
    C3        OBJ       564
    C3        R0        1
    C3        R14       1
    C3        R23       10
    C4        OBJ       789
    C4        R0        1
    C4        R15       1
    C4        R24       10
    C5        OBJ       1318
    C5        R0        1
    C5        R16       1
    C5        R25       10
    C6        OBJ       967
    C6        R0        1
    C6        R17       1
    C6        R26       10
    C7        OBJ       797
    C7        R0        1
    C7        R18       1
    C7        R27       10
    C8        OBJ       1294
    C8        R0        1
    C8        R19       1
    C8        R28       10
    C9        OBJ       502
    C9        R1        1
    C9        R10       1
    C9        R29       10
    C10       OBJ       2079
    C10       R1        1
    C10       R12       1
    C10       R30       10
    C10       R110      10
    C11       OBJ       1401
    C11       R1        1
    C11       R13       1
    C11       R31       10
    C11       R111      10
    C12       OBJ       831
    C12       R1        1
    C12       R14       1
    C12       R32       10
    C12       R112      10
    C13       OBJ       737
    C13       R1        1
    C13       R15       1
    C13       R33       10
    C13       R113      10
    C14       OBJ       1334
    C14       R1        1
    C14       R16       1
    C14       R34       10
    C14       R114      10
    C15       OBJ       1456
    C15       R1        1
    C15       R17       1
    C15       R35       10
    C15       R115      10
    C16       OBJ       1240
    C16       R1        1
    C16       R18       1
    C16       R36       10
    C16       R116      10
    C17       OBJ       1561
    C17       R1        1
    C17       R19       1
    C17       R37       10
    C17       R117      10
    C18       OBJ       2033
    C18       R2        1
    C18       R10       1
    C18       R38       10
    C19       OBJ       2079
    C19       R2        1
    C19       R11       1
    C19       R39       10
    C19       R118      10
    C20       OBJ       851
    C20       R2        1
    C20       R13       1
    C20       R40       10
    C20       R119      10
    C21       OBJ       1492
    C21       R2        1
    C21       R14       1
    C21       R41       10
    C21       R120      10
    C22       OBJ       1342
    C22       R2        1
    C22       R15       1
    C22       R42       10
    C22       R121      10
    C23       OBJ       745
    C23       R2        1
    C23       R16       1
    C23       R43       10
    C23       R122      10
    C24       OBJ       2505
    C24       R2        1
    C24       R17       1
    C24       R44       10
    C24       R123      10
    C25       OBJ       1720
    C25       R2        1
    C25       R18       1
    C25       R45       10
    C25       R124      10
    C26       OBJ       1020
    C26       R2        1
    C26       R19       1
    C26       R46       10
    C26       R125      10
    C27       OBJ       1234
    C27       R3        1
    C27       R10       1
    C27       R47       10
    C28       OBJ       1401
    C28       R3        1
    C28       R11       1
    C28       R48       10
    C28       R126      10
    C29       OBJ       851
    C29       R3        1
    C29       R12       1
    C29       R49       10
    C29       R127      10
    C30       OBJ       671
    C30       R3        1
    C30       R14       1
    C30       R50       10
    C30       R128      10
    C31       OBJ       721
    C31       R3        1
    C31       R15       1
    C31       R51       10
    C31       R129      10
    C32       OBJ       405
    C32       R3        1
    C32       R16       1
    C32       R52       10
    C32       R130      10
    C33       OBJ       1661
    C33       R3        1
    C33       R17       1
    C33       R53       10
    C33       R131      10
    C34       OBJ       882
    C34       R3        1
    C34       R18       1
    C34       R54       10
    C34       R132      10
    C35       OBJ       323
    C35       R3        1
    C35       R19       1
    C35       R55       10
    C35       R133      10
    C36       OBJ       564
    C36       R4        1
    C36       R10       1
    C36       R56       10
    C37       OBJ       831
    C37       R4        1
    C37       R11       1
    C37       R57       10
    C37       R134      10
    C38       OBJ       1492
    C38       R4        1
    C38       R12       1
    C38       R58       10
    C38       R135      10
    C39       OBJ       671
    C39       R4        1
    C39       R13       1
    C39       R59       10
    C39       R136      10
    C40       OBJ       478
    C40       R4        1
    C40       R15       1
    C40       R60       10
    C40       R137      10
    C41       OBJ       819
    C41       R4        1
    C41       R16       1
    C41       R61       10
    C41       R138      10
    C42       OBJ       1151
    C42       R4        1
    C42       R17       1
    C42       R62       10
    C42       R139      10
    C43       OBJ       534
    C43       R4        1
    C43       R18       1
    C43       R63       10
    C43       R140      10
    C44       OBJ       748
    C44       R4        1
    C44       R19       1
    C44       R64       10
    C44       R141      10
    C45       OBJ       789
    C45       R5        1
    C45       R10       1
    C45       R65       10
    C46       OBJ       737
    C46       R5        1
    C46       R11       1
    C46       R66       10
    C46       R142      10
    C47       OBJ       1342
    C47       R5        1
    C47       R12       1
    C47       R67       10
    C47       R143      10
    C48       OBJ       721
    C48       R5        1
    C48       R13       1
    C48       R68       10
    C48       R144      10
    C49       OBJ       478
    C49       R5        1
    C49       R14       1
    C49       R69       10
    C49       R145      10
    C50       OBJ       596
    C50       R5        1
    C50       R16       1
    C50       R70       10
    C50       R146      10
    C51       OBJ       1597
    C51       R5        1
    C51       R17       1
    C51       R71       10
    C51       R147      10
    C52       OBJ       1008
    C52       R5        1
    C52       R18       1
    C52       R72       10
    C52       R148      10
    C53       OBJ       963
    C53       R5        1
    C53       R19       1
    C53       R73       10
    C53       R149      10
    C54       OBJ       1318
    C54       R6        1
    C54       R10       1
    C54       R74       10
    C55       OBJ       1334
    C55       R6        1
    C55       R11       1
    C55       R75       10
    C55       R150      10
    C56       OBJ       745
    C56       R6        1
    C56       R12       1
    C56       R76       10
    C56       R151      10
    C57       OBJ       405
    C57       R6        1
    C57       R13       1
    C57       R77       10
    C57       R152      10
    C58       OBJ       819
    C58       R6        1
    C58       R14       1
    C58       R78       10
    C58       R153      10
    C59       OBJ       596
    C59       R6        1
    C59       R15       1
    C59       R79       10
    C59       R154      10
    C60       OBJ       1938
    C60       R6        1
    C60       R17       1
    C60       R80       10
    C60       R155      10
    C61       OBJ       1196
    C61       R6        1
    C61       R18       1
    C61       R81       10
    C61       R156      10
    C62       OBJ       728
    C62       R6        1
    C62       R19       1
    C62       R82       10
    C62       R157      10
    C63       OBJ       967
    C63       R7        1
    C63       R10       1
    C63       R83       10
    C64       OBJ       1456
    C64       R7        1
    C64       R11       1
    C64       R84       10
    C64       R158      10
    C65       OBJ       2505
    C65       R7        1
    C65       R12       1
    C65       R85       10
    C65       R159      10
    C66       OBJ       1661
    C66       R7        1
    C66       R13       1
    C66       R86       10
    C66       R160      10
    C67       OBJ       1151
    C67       R7        1
    C67       R14       1
    C67       R87       10
    C67       R161      10
    C68       OBJ       1597
    C68       R7        1
    C68       R15       1
    C68       R88       10
    C68       R162      10
    C69       OBJ       1938
    C69       R7        1
    C69       R16       1
    C69       R89       10
    C69       R163      10
    C70       OBJ       786
    C70       R7        1
    C70       R18       1
    C70       R90       10
    C70       R164      10
    C71       OBJ       1516
    C71       R7        1
    C71       R19       1
    C71       R91       10
    C71       R165      10
    C72       OBJ       797
    C72       R8        1
    C72       R10       1
    C72       R92       10
    C73       OBJ       1240
    C73       R8        1
    C73       R11       1
    C73       R93       10
    C73       R166      10
    C74       OBJ       1720
    C74       R8        1
    C74       R12       1
    C74       R94       10
    C74       R167      10
    C75       OBJ       882
    C75       R8        1
    C75       R13       1
    C75       R95       10
    C75       R168      10
    C76       OBJ       534
    C76       R8        1
    C76       R14       1
    C76       R96       10
    C76       R169      10
    C77       OBJ       1008
    C77       R8        1
    C77       R15       1
    C77       R97       10
    C77       R170      10
    C78       OBJ       1196
    C78       R8        1
    C78       R16       1
    C78       R98       10
    C78       R171      10
    C79       OBJ       786
    C79       R8        1
    C79       R17       1
    C79       R99       10
    C79       R172      10
    C80       OBJ       736
    C80       R8        1
    C80       R19       1
    C80       R100      10
    C80       R173      10
    C81       OBJ       1294
    C81       R9        1
    C81       R10       1
    C81       R101      10
    C82       OBJ       1561
    C82       R9        1
    C82       R11       1
    C82       R102      10
    C82       R174      10
    C83       OBJ       1020
    C83       R9        1
    C83       R12       1
    C83       R103      10
    C83       R175      10
    C84       OBJ       323
    C84       R9        1
    C84       R13       1
    C84       R104      10
    C84       R176      10
    C85       OBJ       748
    C85       R9        1
    C85       R14       1
    C85       R105      10
    C85       R177      10
    C86       OBJ       963
    C86       R9        1
    C86       R15       1
    C86       R106      10
    C86       R178      10
    C87       OBJ       728
    C87       R9        1
    C87       R16       1
    C87       R107      10
    C87       R179      10
    C88       OBJ       1516
    C88       R9        1
    C88       R17       1
    C88       R108      10
    C88       R180      10
    C89       OBJ       736
    C89       R9        1
    C89       R18       1
    C89       R109      10
    C89       R181      10
    C90       R20       1
    C90       R21       1
    C90       R22       1
    C90       R23       1
    C90       R24       1
    C90       R25       1
    C90       R26       1
    C90       R27       1
    C90       R28       1
    C90       R29       -1
    C90       R38       -1
    C90       R47       -1
    C90       R56       -1
    C90       R65       -1
    C90       R74       -1
    C90       R83       -1
    C90       R92       -1
    C90       R101      -1
    C91       R20       -1
    C91       R29       1
    C91       R30       1
    C91       R31       1
    C91       R32       1
    C91       R33       1
    C91       R34       1
    C91       R35       1
    C91       R36       1
    C91       R37       1
    C91       R39       -1
    C91       R48       -1
    C91       R57       -1
    C91       R66       -1
    C91       R75       -1
    C91       R84       -1
    C91       R93       -1
    C91       R102      -1
    C91       R110      1
    C91       R111      1
    C91       R112      1
    C91       R113      1
    C91       R114      1
    C91       R115      1
    C91       R116      1
    C91       R117      1
    C91       R118      -1
    C91       R126      -1
    C91       R134      -1
    C91       R142      -1
    C91       R150      -1
    C91       R158      -1
    C91       R166      -1
    C91       R174      -1
    C92       R21       -1
    C92       R30       -1
    C92       R38       1
    C92       R39       1
    C92       R40       1
    C92       R41       1
    C92       R42       1
    C92       R43       1
    C92       R44       1
    C92       R45       1
    C92       R46       1
    C92       R49       -1
    C92       R58       -1
    C92       R67       -1
    C92       R76       -1
    C92       R85       -1
    C92       R94       -1
    C92       R103      -1
    C92       R110      -1
    C92       R118      1
    C92       R119      1
    C92       R120      1
    C92       R121      1
    C92       R122      1
    C92       R123      1
    C92       R124      1
    C92       R125      1
    C92       R127      -1
    C92       R135      -1
    C92       R143      -1
    C92       R151      -1
    C92       R159      -1
    C92       R167      -1
    C92       R175      -1
    C93       R22       -1
    C93       R31       -1
    C93       R40       -1
    C93       R47       1
    C93       R48       1
    C93       R49       1
    C93       R50       1
    C93       R51       1
    C93       R52       1
    C93       R53       1
    C93       R54       1
    C93       R55       1
    C93       R59       -1
    C93       R68       -1
    C93       R77       -1
    C93       R86       -1
    C93       R95       -1
    C93       R104      -1
    C93       R111      -1
    C93       R119      -1
    C93       R126      1
    C93       R127      1
    C93       R128      1
    C93       R129      1
    C93       R130      1
    C93       R131      1
    C93       R132      1
    C93       R133      1
    C93       R136      -1
    C93       R144      -1
    C93       R152      -1
    C93       R160      -1
    C93       R168      -1
    C93       R176      -1
    C94       R23       -1
    C94       R32       -1
    C94       R41       -1
    C94       R50       -1
    C94       R56       1
    C94       R57       1
    C94       R58       1
    C94       R59       1
    C94       R60       1
    C94       R61       1
    C94       R62       1
    C94       R63       1
    C94       R64       1
    C94       R69       -1
    C94       R78       -1
    C94       R87       -1
    C94       R96       -1
    C94       R105      -1
    C94       R112      -1
    C94       R120      -1
    C94       R128      -1
    C94       R134      1
    C94       R135      1
    C94       R136      1
    C94       R137      1
    C94       R138      1
    C94       R139      1
    C94       R140      1
    C94       R141      1
    C94       R145      -1
    C94       R153      -1
    C94       R161      -1
    C94       R169      -1
    C94       R177      -1
    C95       R24       -1
    C95       R33       -1
    C95       R42       -1
    C95       R51       -1
    C95       R60       -1
    C95       R65       1
    C95       R66       1
    C95       R67       1
    C95       R68       1
    C95       R69       1
    C95       R70       1
    C95       R71       1
    C95       R72       1
    C95       R73       1
    C95       R79       -1
    C95       R88       -1
    C95       R97       -1
    C95       R106      -1
    C95       R113      -1
    C95       R121      -1
    C95       R129      -1
    C95       R137      -1
    C95       R142      1
    C95       R143      1
    C95       R144      1
    C95       R145      1
    C95       R146      1
    C95       R147      1
    C95       R148      1
    C95       R149      1
    C95       R154      -1
    C95       R162      -1
    C95       R170      -1
    C95       R178      -1
    C96       R25       -1
    C96       R34       -1
    C96       R43       -1
    C96       R52       -1
    C96       R61       -1
    C96       R70       -1
    C96       R74       1
    C96       R75       1
    C96       R76       1
    C96       R77       1
    C96       R78       1
    C96       R79       1
    C96       R80       1
    C96       R81       1
    C96       R82       1
    C96       R89       -1
    C96       R98       -1
    C96       R107      -1
    C96       R114      -1
    C96       R122      -1
    C96       R130      -1
    C96       R138      -1
    C96       R146      -1
    C96       R150      1
    C96       R151      1
    C96       R152      1
    C96       R153      1
    C96       R154      1
    C96       R155      1
    C96       R156      1
    C96       R157      1
    C96       R163      -1
    C96       R171      -1
    C96       R179      -1
    C97       R26       -1
    C97       R35       -1
    C97       R44       -1
    C97       R53       -1
    C97       R62       -1
    C97       R71       -1
    C97       R80       -1
    C97       R83       1
    C97       R84       1
    C97       R85       1
    C97       R86       1
    C97       R87       1
    C97       R88       1
    C97       R89       1
    C97       R90       1
    C97       R91       1
    C97       R99       -1
    C97       R108      -1
    C97       R115      -1
    C97       R123      -1
    C97       R131      -1
    C97       R139      -1
    C97       R147      -1
    C97       R155      -1
    C97       R158      1
    C97       R159      1
    C97       R160      1
    C97       R161      1
    C97       R162      1
    C97       R163      1
    C97       R164      1
    C97       R165      1
    C97       R172      -1
    C97       R180      -1
    C98       R27       -1
    C98       R36       -1
    C98       R45       -1
    C98       R54       -1
    C98       R63       -1
    C98       R72       -1
    C98       R81       -1
    C98       R90       -1
    C98       R92       1
    C98       R93       1
    C98       R94       1
    C98       R95       1
    C98       R96       1
    C98       R97       1
    C98       R98       1
    C98       R99       1
    C98       R100      1
    C98       R109      -1
    C98       R116      -1
    C98       R124      -1
    C98       R132      -1
    C98       R140      -1
    C98       R148      -1
    C98       R156      -1
    C98       R164      -1
    C98       R166      1
    C98       R167      1
    C98       R168      1
    C98       R169      1
    C98       R170      1
    C98       R171      1
    C98       R172      1
    C98       R173      1
    C98       R181      -1
    C99       R28       -1
    C99       R37       -1
    C99       R46       -1
    C99       R55       -1
    C99       R64       -1
    C99       R73       -1
    C99       R82       -1
    C99       R91       -1
    C99       R100      -1
    C99       R101      1
    C99       R102      1
    C99       R103      1
    C99       R104      1
    C99       R105      1
    C99       R106      1
    C99       R107      1
    C99       R108      1
    C99       R109      1
    C99       R117      -1
    C99       R125      -1
    C99       R133      -1
    C99       R141      -1
    C99       R149      -1
    C99       R157      -1
    C99       R165      -1
    C99       R173      -1
    C99       R174      1
    C99       R175      1
    C99       R176      1
    C99       R177      1
    C99       R178      1
    C99       R179      1
    C99       R180      1
    C99       R181      1
RHS
    RHS1      R0        1
    RHS1      R1        1
    RHS1      R2        1
    RHS1      R3        1
    RHS1      R4        1
    RHS1      R5        1
    RHS1      R6        1
    RHS1      R7        1
    RHS1      R8        1
    RHS1      R9        1
    RHS1      R10       1
    RHS1      R11       1
    RHS1      R12       1
    RHS1      R13       1
    RHS1      R14       1
    RHS1      R15       1
    RHS1      R16       1
    RHS1      R17       1
    RHS1      R18       1
    RHS1      R19       1
    RHS1      R20       9
    RHS1      R21       9
    RHS1      R22       9
    RHS1      R23       9
    RHS1      R24       9
    RHS1      R25       9
    RHS1      R26       9
    RHS1      R27       9
    RHS1      R28       9
    RHS1      R29       9
    RHS1      R30       9
    RHS1      R31       9
    RHS1      R32       9
    RHS1      R33       9
    RHS1      R34       9
    RHS1      R35       9
    RHS1      R36       9
    RHS1      R37       9
    RHS1      R38       9
    RHS1      R39       9
    RHS1      R40       9
    RHS1      R41       9
    RHS1      R42       9
    RHS1      R43       9
    RHS1      R44       9
    RHS1      R45       9
    RHS1      R46       9
    RHS1      R47       9
    RHS1      R48       9
    RHS1      R49       9
    RHS1      R50       9
    RHS1      R51       9
    RHS1      R52       9
    RHS1      R53       9
    RHS1      R54       9
    RHS1      R55       9
    RHS1      R56       9
    RHS1      R57       9
    RHS1      R58       9
    RHS1      R59       9
    RHS1      R60       9
    RHS1      R61       9
    RHS1      R62       9
    RHS1      R63       9
    RHS1      R64       9
    RHS1      R65       9
    RHS1      R66       9
    RHS1      R67       9
    RHS1      R68       9
    RHS1      R69       9
    RHS1      R70       9
    RHS1      R71       9
    RHS1      R72       9
    RHS1      R73       9
    RHS1      R74       9
    RHS1      R75       9
    RHS1      R76       9
    RHS1      R77       9
    RHS1      R78       9
    RHS1      R79       9
    RHS1      R80       9
    RHS1      R81       9
    RHS1      R82       9
    RHS1      R83       9
    RHS1      R84       9
    RHS1      R85       9
    RHS1      R86       9
    RHS1      R87       9
    RHS1      R88       9
    RHS1      R89       9
    RHS1      R90       9
    RHS1      R91       9
    RHS1      R92       9
    RHS1      R93       9
    RHS1      R94       9
    RHS1      R95       9
    RHS1      R96       9
    RHS1      R97       9
    RHS1      R98       9
    RHS1      R99       9
    RHS1      R100      9
    RHS1      R101      9
    RHS1      R102      9
    RHS1      R103      9
    RHS1      R104      9
    RHS1      R105      9
    RHS1      R106      9
    RHS1      R107      9
    RHS1      R108      9
    RHS1      R109      9
    RHS1      R110      9
    RHS1      R111      9
    RHS1      R112      9
    RHS1      R113      9
    RHS1      R114      9
    RHS1      R115      9
    RHS1      R116      9
    RHS1      R117      9
    RHS1      R118      9
    RHS1      R119      9
    RHS1      R120      9
    RHS1      R121      9
    RHS1      R122      9
    RHS1      R123      9
    RHS1      R124      9
    RHS1      R125      9
    RHS1      R126      9
    RHS1      R127      9
    RHS1      R128      9
    RHS1      R129      9
    RHS1      R130      9
    RHS1      R131      9
    RHS1      R132      9
    RHS1      R133      9
    RHS1      R134      9
    RHS1      R135      9
    RHS1      R136      9
    RHS1      R137      9
    RHS1      R138      9
    RHS1      R139      9
    RHS1      R140      9
    RHS1      R141      9
    RHS1      R142      9
    RHS1      R143      9
    RHS1      R144      9
    RHS1      R145      9
    RHS1      R146      9
    RHS1      R147      9
    RHS1      R148      9
    RHS1      R149      9
    RHS1      R150      9
    RHS1      R151      9
    RHS1      R152      9
    RHS1      R153      9
    RHS1      R154      9
    RHS1      R155      9
    RHS1      R156      9
    RHS1      R157      9
    RHS1      R158      9
    RHS1      R159      9
    RHS1      R160      9
    RHS1      R161      9
    RHS1      R162      9
    RHS1      R163      9
    RHS1      R164      9
    RHS1      R165      9
    RHS1      R166      9
    RHS1      R167      9
    RHS1      R168      9
    RHS1      R169      9
    RHS1      R170      9
    RHS1      R171      9
    RHS1      R172      9
    RHS1      R173      9
    RHS1      R174      9
    RHS1      R175      9
    RHS1      R176      9
    RHS1      R177      9
    RHS1      R178      9
    RHS1      R179      9
    RHS1      R180      9
    RHS1      R181      9
BOUNDS
ENDATA
